QPLIB_3358
LCQ
minimize
158 # number of variables
172 # number of constraints
0.0 # default value for linear coefficients in objective
1 # number of non-default linear coefficients in objective
51 1.0
0.0 # objective constant
111 # number of quadratic terms in all constraints
67 524289 -1001494411 -2.0
68 32571 1 2.0
69 13306929 13299393 2.0
70 1 1 2.0
71 13306721 13299441 2.0
72 1 1 2.0
73 49 23 2.0
74 23 1 2.0
75 242 34 2.0
76 1 1 2.0
77 1818576901 13302305 2.0
78 32625 1 2.0
79 -1001469063 -1001469063 2.0
80 32571 32571 2.0
81 1 1 2.0
82 1 1 2.0
83 130 1 2.0
84 1 1 2.0
85 49 -1025379103 2.0
86 32571 1 2.0
87 49 2 2.0
88 1 1 2.0
89 13302785 1 2.0
90 1 1 2.0
91 1 1 2.0
92 1 1 -2.0
93 13296193 1 -2.0
94 1 1 -2.0
95 13302833 1 -2.0
96 1 1 -2.0
97 1 1 -2.0
98 1 1 -2.0
99 146 1 -2.0
100 1 1 -2.0
101 13345649 1 -2.0
102 2 1 -2.0
103 13300497 1 -2.0
104 1 1 2.0
105 2 1 2.0
106 2 1 2.0
107 114 1 2.0
108 1 1 2.0
109 2 -1001469063 2.0
110 32571 1 2.0
111 -2147483648 13300737 2.0
112 101012 1 2.0
113 13299089 1 2.0
114 1 1 2.0
115 13299569 50 2.0
116 1 1 2.0
117 1818838555 49 2.0
118 2037653606 1 2.0
119 1864394097 65 2.0
120 1668489319 1 2.0
121 1668571507 13345889 2.0
122 1768300649 1 2.0
123 13914705 7562605 2.0
124 1 1 2.0
125 808525857 13299089 2.0
126 825241649 1 2.0
127 160 34 2.0
128 -2147483648 1 2.0
129 1735147788 1 2.0
130 1701603655 151 2.0
131 1701869909 13301649 2.0
132 32571 1 2.0
133 305 1 2.0
134 1 1 2.0
135 113 34 2.0
136 1 1 2.0
137 1735147788 -1025379743 2.0
138 1701603655 32571 2.0
139 1701869909 1 2.0
140 32571 1 2.0
141 1 1 2.0
142 1 1 2.0
143 130 1 2.0
144 1 1 -2.0
145 13296193 -1025379103 -2.0
146 32571 1 -2.0
147 13299745 2 -2.0
148 1 1 -2.0
149 13303025 1 -2.0
150 1 1 -2.0
151 1 1 -2.0
152 1 1 -2.0
153 13296193 1 -2.0
154 1 1 -2.0
155 13303057 1 -2.0
156 10 1 -2.0
157 1 1 -2.0
158 1 1 -2.0
159 1 1 -2.0
160 1027 1 -2.0
161 13300225 1 -2.0
162 2 1 -2.0
163 34 1 -2.0
164 1 1 -2.0
165 1818576901 2 -2.0
166 32625 2 -2.0
167 1 -1001469063 -2.0
168 32571 1 2.0
168 32571 1 2.0
169 1000 33 2.0
169 1000 33 2.0
170 1 1 2.0
170 1 1 2.0
171 -2147483648 50 2.0
171 -2147483648 50 2.0
172 248 1 2.0
172 248 1 2.0
405 # number of linear terms in all constraints
1 51 1.0
1 106 -1.0
2 107 1.0
2 108 -1.0
3 109 1.0
3 110 -1.0
4 111 -0.1666666667
4 112 -0.1666666667
4 113 -0.1666666667
4 114 -0.1666666667
4 115 -0.1666666667
4 116 -0.1666666667
4 117 1.0
5 118 -0.1666666667
5 119 -0.1666666667
5 120 -0.1666666667
5 121 -0.1666666667
5 122 -0.1666666667
5 123 -0.1666666667
5 124 1.0
6 125 -0.1666666667
6 126 -0.1666666667
6 127 -0.1666666667
6 128 -0.1666666667
6 129 -0.1666666667
6 130 -0.1666666667
6 131 1.0
7 132 -0.1666666667
7 133 -0.1666666667
7 134 -0.1666666667
7 135 -0.1666666667
7 136 -0.1666666667
7 137 -0.1666666667
7 138 1.0
8 108 -1.0
8 111 1.0
9 110 -1.0
9 118 1.0
10 108 -1.0
10 112 1.0
11 110 -1.0
11 119 1.0
12 108 -1.0
12 113 1.0
13 110 -1.0
13 120 1.0
14 108 -1.0
14 114 1.0
15 110 -1.0
15 121 1.0
16 108 -1.0
16 115 1.0
17 110 -1.0
17 122 1.0
18 108 -1.0
18 116 1.0
19 110 -1.0
19 123 1.0
20 108 -1.0
20 125 1.0
21 110 -1.0
21 132 1.0
22 108 -1.0
22 126 1.0
23 110 -1.0
23 133 1.0
24 108 -1.0
24 127 1.0
25 110 -1.0
25 134 1.0
26 108 -1.0
26 128 1.0
27 110 -1.0
27 135 1.0
28 108 -1.0
28 129 1.0
29 110 -1.0
29 136 1.0
30 108 -1.0
30 130 1.0
31 110 -1.0
31 137 1.0
32 111 1.0
32 117 -1.0
32 139 0.8333333333
32 140 0.75
33 112 1.0
33 117 -1.0
33 139 -0.1666666667
33 140 0.75
34 113 1.0
34 117 -1.0
34 139 -0.6666666667
34 140 0.25
35 114 1.0
35 117 -1.0
35 139 -0.6666666667
35 140 -0.25
36 115 1.0
36 117 -1.0
36 139 -0.1666666667
36 140 -0.75
37 116 1.0
37 117 -1.0
37 139 0.8333333333
37 140 -0.75
38 125 1.0
38 131 -1.0
38 141 0.8333333333
38 142 0.75
39 126 1.0
39 131 -1.0
39 141 -0.1666666667
39 142 0.75
40 127 1.0
40 131 -1.0
40 141 -0.6666666667
40 142 0.25
41 128 1.0
41 131 -1.0
41 141 -0.6666666667
41 142 -0.25
42 129 1.0
42 131 -1.0
42 141 -0.1666666667
42 142 -0.75
43 130 1.0
43 131 -1.0
43 141 0.8333333333
43 142 -0.75
44 118 1.0
44 124 -1.0
44 139 -0.75
44 140 0.8333333333
45 119 1.0
45 124 -1.0
45 139 -0.75
45 140 -0.1666666667
46 120 1.0
46 124 -1.0
46 139 -0.25
46 140 -0.6666666667
47 121 1.0
47 124 -1.0
47 139 0.25
47 140 -0.6666666667
48 122 1.0
48 124 -1.0
48 139 0.75
48 140 -0.1666666667
49 123 1.0
49 124 -1.0
49 139 0.75
49 140 0.8333333333
50 132 1.0
50 138 -1.0
50 141 -0.75
50 142 0.8333333333
51 133 1.0
51 138 -1.0
51 141 -0.75
51 142 -0.1666666667
52 134 1.0
52 138 -1.0
52 141 -0.25
52 142 -0.6666666667
53 135 1.0
53 138 -1.0
53 141 0.25
53 142 -0.6666666667
54 136 1.0
54 138 -1.0
54 141 0.75
54 142 -0.1666666667
55 137 1.0
55 138 -1.0
55 141 0.75
55 142 0.8333333333
56 143 -1.0
56 144 1.0
57 145 1.0
57 146 1.0
58 147 -1.0
58 148 1.0
59 149 -1.0
59 150 1.0
60 151 1.0
60 152 1.0
61 153 1.0
61 154 1.0
62 148 1.2
62 155 1.0
63 152 1.2
63 156 1.0
64 150 1.2
64 157 1.0
65 154 1.2
65 158 1.0
66 117 1.0
66 131 -1.0
67 106 1.0
68 52 1.0
68 53 1.0
68 111 -1.0
69 54 1.0
69 55 1.0
69 118 -1.0
70 52 1.0
70 56 1.0
70 112 -1.0
71 54 1.0
71 57 1.0
71 119 -1.0
72 52 1.0
72 58 1.0
72 113 -1.0
73 54 1.0
73 59 1.0
73 120 -1.0
74 52 1.0
74 60 1.0
74 114 -1.0
75 54 1.0
75 61 1.0
75 121 -1.0
76 52 1.0
76 62 1.0
76 115 -1.0
77 54 1.0
77 63 1.0
77 122 -1.0
78 52 1.0
78 64 1.0
78 116 -1.0
79 54 1.0
79 65 1.0
79 123 -1.0
80 52 1.0
80 66 1.0
80 125 -1.0
81 54 1.0
81 67 1.0
81 132 -1.0
82 52 1.0
82 68 1.0
82 126 -1.0
83 54 1.0
83 69 1.0
83 133 -1.0
84 52 1.0
84 70 1.0
84 127 -1.0
85 54 1.0
85 71 1.0
85 134 -1.0
86 52 1.0
86 72 1.0
86 128 -1.0
87 54 1.0
87 73 1.0
87 135 -1.0
88 52 1.0
88 74 1.0
88 129 -1.0
89 54 1.0
89 75 1.0
89 136 -1.0
90 52 1.0
90 76 1.0
90 130 -1.0
91 54 1.0
91 77 1.0
91 137 -1.0
92 53 1.0
93 55 1.0
94 56 1.0
95 57 1.0
96 58 1.0
97 59 1.0
98 60 1.0
99 61 1.0
100 62 1.0
101 63 1.0
102 64 1.0
103 65 1.0
104 66 1.0
105 67 1.0
106 68 1.0
107 69 1.0
108 70 1.0
109 71 1.0
110 72 1.0
111 73 1.0
112 74 1.0
113 75 1.0
114 76 1.0
115 77 1.0
116 78 1.0
116 79 1.0
116 111 -1.0
117 80 1.0
117 81 1.0
117 118 -1.0
118 78 1.0
118 82 1.0
118 112 -1.0
119 80 1.0
119 83 1.0
119 119 -1.0
120 78 1.0
120 84 1.0
120 113 -1.0
121 80 1.0
121 85 1.0
121 120 -1.0
122 78 1.0
122 86 1.0
122 114 -1.0
123 80 1.0
123 87 1.0
123 121 -1.0
124 78 1.0
124 88 1.0
124 115 -1.0
125 80 1.0
125 89 1.0
125 122 -1.0
126 78 1.0
126 90 1.0
126 116 -1.0
127 80 1.0
127 91 1.0
127 123 -1.0
128 92 1.0
128 93 1.0
128 125 -1.0
129 94 1.0
129 95 1.0
129 132 -1.0
130 92 1.0
130 96 1.0
130 126 -1.0
131 94 1.0
131 97 1.0
131 133 -1.0
132 92 1.0
132 98 1.0
132 127 -1.0
133 94 1.0
133 99 1.0
133 134 -1.0
134 92 1.0
134 100 1.0
134 128 -1.0
135 94 1.0
135 101 1.0
135 135 -1.0
136 92 1.0
136 102 1.0
136 129 -1.0
137 94 1.0
137 103 1.0
137 136 -1.0
138 92 1.0
138 104 1.0
138 130 -1.0
139 94 1.0
139 105 1.0
139 137 -1.0
140 78 1.0
140 107 -1.0
140 155 1.0
141 80 1.0
141 109 -1.0
141 156 1.0
142 92 1.0
142 107 -1.0
142 157 1.0
143 94 1.0
143 109 -1.0
143 158 1.0
144 79 1.0
145 81 1.0
146 82 1.0
147 83 1.0
148 84 1.0
149 85 1.0
150 86 1.0
151 87 1.0
152 88 1.0
153 89 1.0
154 90 1.0
155 91 1.0
156 93 1.0
157 95 1.0
158 96 1.0
159 97 1.0
160 98 1.0
161 99 1.0
162 100 1.0
163 101 1.0
164 102 1.0
165 103 1.0
166 104 1.0
167 105 1.0
1.79769313486232E+308 # value for infinity
0.0 # default left-hand-side value
33 # number of non-default left-hand-sides
1 -8.523893421
2 -1.79769313486232E+308
3 -1.79769313486232E+308
8 -1.79769313486232E+308
9 -1.79769313486232E+308
10 -1.79769313486232E+308
11 -1.79769313486232E+308
12 -1.79769313486232E+308
13 -1.79769313486232E+308
14 -1.79769313486232E+308
15 -1.79769313486232E+308
16 -1.79769313486232E+308
17 -1.79769313486232E+308
18 -1.79769313486232E+308
19 -1.79769313486232E+308
20 -1.79769313486232E+308
21 -1.79769313486232E+308
22 -1.79769313486232E+308
23 -1.79769313486232E+308
24 -1.79769313486232E+308
25 -1.79769313486232E+308
26 -1.79769313486232E+308
27 -1.79769313486232E+308
28 -1.79769313486232E+308
29 -1.79769313486232E+308
30 -1.79769313486232E+308
31 -1.79769313486232E+308
66 -1.79769313486232E+308
168 1.0
169 1.0
170 1.0
171 1.0
172 1.0
0.0 # default right-hand-side value
8 # number of non-default right-hand-sides
1 -8.523893421
2 -1.2
3 -1.2
168 1.0
169 1.0
170 1.0
171 1.0
172 1.0
0.0 # default variable lower bound value
97 # number of non-default variable lower bounds
13 -8.94427191
14 -8.94427191
15 -8.94427191
16 -8.94427191
17 -8.94427191
18 -8.94427191
19 -8.94427191
20 -8.94427191
21 -8.94427191
22 -8.94427191
23 -8.94427191
24 -8.94427191
37 -8.94427191
38 -8.94427191
39 -8.94427191
40 -8.94427191
41 -8.94427191
42 -8.94427191
43 -8.94427191
44 -8.94427191
45 -8.94427191
46 -8.94427191
47 -8.94427191
48 -8.94427191
49 -8.94427191
50 -8.94427191
53 -8.94427191
55 -8.94427191
56 -8.94427191
57 -8.94427191
58 -8.94427191
59 -8.94427191
60 -8.94427191
61 -8.94427191
62 -8.94427191
63 -8.94427191
64 -8.94427191
65 -8.94427191
66 -8.94427191
67 -8.94427191
68 -8.94427191
69 -8.94427191
70 -8.94427191
71 -8.94427191
72 -8.94427191
73 -8.94427191
74 -8.94427191
75 -8.94427191
76 -8.94427191
77 -8.94427191
79 -8.94427191
81 -8.94427191
82 -8.94427191
83 -8.94427191
84 -8.94427191
85 -8.94427191
86 -8.94427191
87 -8.94427191
88 -8.94427191
89 -8.94427191
90 -8.94427191
91 -8.94427191
93 -8.94427191
95 -8.94427191
96 -8.94427191
97 -8.94427191
98 -8.94427191
99 -8.94427191
100 -8.94427191
101 -8.94427191
102 -8.94427191
103 -8.94427191
104 -8.94427191
105 -8.94427191
106 1.44
107 1.2
109 1.2
139 -1.0
140 -1.0
141 -1.0
142 -1.0
143 -1.0
144 -1.0
145 -1.0
146 -1.0
147 -1.0
148 -1.0
149 -1.0
150 -1.0
151 -1.0
152 -1.0
153 -1.0
154 -1.0
155 -8.94427191
156 -8.94427191
157 -8.94427191
158 -8.94427191
8.94427191 # default variable upper bound value
56 # number of non-default variable upper bounds
51 32.0
52 8.0
54 4.0
78 8.0
80 4.0
92 8.0
94 4.0
106 32.0
107 4.0
108 8.0
109 2.0
110 4.0
111 8.0
112 8.0
113 8.0
114 8.0
115 8.0
116 8.0
117 8.0
118 4.0
119 4.0
120 4.0
121 4.0
122 4.0
123 4.0
124 4.0
125 8.0
126 8.0
127 8.0
128 8.0
129 8.0
130 8.0
131 8.0
132 4.0
133 4.0
134 4.0
135 4.0
136 4.0
137 4.0
138 4.0
139 1.0
140 1.0
141 1.0
142 1.0
143 1.0
144 1.0
145 1.0
146 1.0
147 1.0
148 1.0
149 1.0
150 1.0
151 1.0
152 1.0
153 1.0
154 1.0
0.0 # default variable primal value in starting point
3 # number of non-default variable primal values in starting point
106 1.44
107 1.2
109 1.2
0.0 # default constraint dual value in starting point
0 # number of non-default constraint dual values in starting point
0.0 # default variable bound dual value in starting point
0 # number of non-default variable bound dual values in starting point
0 # number of non-default variable names
0 # number of non-default constraint names
